c Standarized MaxSat Instance
c{
c "sha1sum": "d74e5775f9d4d80e6f46cb87d5f574fb814da637",
c "nvars": 181,
c "ncls": 421,
c "total_lits": 1100,
c "nhards": 381,
c "nhard_nlits": 1060,
c "nhard_len_stats":
c    { "min": 2,
c      "max": 4,
c      "ave": 2.7822,
c      "stddev": 0.5995 },
c "nsofts": 40,
c "nsoft_nlits": 40,
c "nsoft_len_stats":
c    { "min": 1,
c      "max": 1,
c      "ave": 1.0000,
c      "stddev": 0.0000 },
c "nsoft_wts": 1,
c "soft_wt_stats":
c    { "min": 1,
c      "max": 1,
c      "ave": 1.0000,
c      "stddev": 0.0000 }
c}
c------------------------------------------------------------
c This instance encodes a supposedly trivial MaxSAT formula.
c The hard part of the formula encodes a cardinality constraint:
c     x1 + ... + x40 <= 12
c Cardinality encoding used is 'kmtot'.
c The soft part prefers all the variables to be set to true:
c     x1 = 1, ..., x40 = 1
c As a result, the optimum cost for this formula is 28.
c
1 1 0
1 2 0
1 3 0
1 4 0
1 5 0
1 6 0
1 7 0
1 8 0
1 9 0
1 10 0
1 11 0
1 12 0
1 13 0
1 14 0
1 15 0
1 16 0
1 17 0
1 18 0
1 19 0
1 20 0
1 21 0
1 22 0
1 23 0
1 24 0
1 25 0
1 26 0
1 27 0
1 28 0
1 29 0
1 30 0
1 31 0
1 32 0
1 33 0
1 34 0
1 35 0
1 36 0
1 37 0
1 38 0
1 39 0
1 40 0
h -57 45 59 0
h -58 46 59 0
h -51 45 59 0
h -52 46 59 0
h -51 -57 46 59 0
h -51 -58 59 0
h -52 -57 59 0
h -52 -58 45 0
h -59 41 0
h -53 41 0
h -59 -53 42 0
h -54 42 0
h -59 -54 43 0
h -55 43 0
h -59 -55 44 0
h -56 44 0
h -59 -56 0
h -47 41 0
h -59 -47 42 0
h -48 42 0
h -59 -48 43 0
h -49 43 0
h -59 -49 44 0
h -50 44 0
h -59 -50 0
h -47 -53 42 0
h -59 -47 -53 43 0
h -47 -54 43 0
h -59 -47 -54 44 0
h -47 -55 44 0
h -59 -47 -55 0
h -47 -56 0
h -59 -47 -56 0
h -48 -53 43 0
h -59 -48 -53 44 0
h -48 -54 44 0
h -59 -48 -54 0
h -48 -55 0
h -59 -48 -55 0
h -48 -56 0
h -59 -48 -56 0
h -49 -53 44 0
h -59 -49 -53 0
h -49 -54 0
h -59 -49 -54 0
h -49 -55 0
h -59 -49 -55 0
h -49 -56 0
h -59 -49 -56 0
h -50 -53 0
h -59 -50 -53 0
h -50 -54 0
h -59 -50 -54 0
h -50 -55 0
h -59 -50 -55 0
h -50 -56 0
h -59 -50 -56 0
h -68 57 70 0
h -69 58 70 0
h -63 57 70 0
h -64 58 70 0
h -63 -68 58 70 0
h -63 -69 70 0
h -64 -68 70 0
h -64 -69 57 0
h -70 53 0
h -65 53 0
h -70 -65 54 0
h -66 54 0
h -70 -66 55 0
h -67 55 0
h -70 -67 56 0
h -60 53 0
h -70 -60 54 0
h -61 54 0
h -70 -61 55 0
h -62 55 0
h -70 -62 56 0
h -60 -65 54 0
h -70 -60 -65 55 0
h -60 -66 55 0
h -70 -60 -66 56 0
h -60 -67 56 0
h -70 -60 -67 0
h -61 -65 55 0
h -70 -61 -65 56 0
h -61 -66 56 0
h -70 -61 -66 0
h -61 -67 0
h -70 -61 -67 0
h -62 -65 56 0
h -70 -62 -65 0
h -62 -66 0
h -70 -62 -66 0
h -62 -67 0
h -70 -62 -67 0
h -75 68 77 0
h -76 69 77 0
h -72 68 77 0
h -73 69 77 0
h -72 -75 69 77 0
h -72 -76 77 0
h -73 -75 77 0
h -73 -76 68 0
h -77 65 0
h -74 65 0
h -77 -74 66 0
h -71 65 0
h -77 -71 66 0
h -71 -74 66 0
h -77 -71 -74 67 0
h -40 81 0
h -39 81 0
h -39 -40 82 0
h -81 75 83 0
h -82 76 83 0
h -79 75 83 0
h -80 76 83 0
h -79 -81 76 83 0
h -79 -82 83 0
h -80 -81 83 0
h -80 -82 75 0
h -83 74 0
h -78 74 0
h -83 -78 0
h -37 84 0
h -36 84 0
h -36 -37 85 0
h -38 79 86 0
h -84 79 86 0
h -85 80 86 0
h -84 -38 80 86 0
h -85 -38 86 0
h -86 78 0
h -35 90 0
h -34 90 0
h -34 -35 91 0
h -90 72 92 0
h -91 73 92 0
h -88 72 92 0
h -89 73 92 0
h -88 -90 73 92 0
h -88 -91 92 0
h -89 -90 92 0
h -89 -91 72 0
h -92 71 0
h -87 71 0
h -92 -87 0
h -32 93 0
h -31 93 0
h -31 -32 94 0
h -33 88 95 0
h -93 88 95 0
h -94 89 95 0
h -93 -33 89 95 0
h -94 -33 95 0
h -95 87 0
h -100 63 102 0
h -101 64 102 0
h -97 63 102 0
h -98 64 102 0
h -97 -100 64 102 0
h -97 -101 102 0
h -98 -100 102 0
h -98 -101 63 0
h -102 60 0
h -99 60 0
h -102 -99 61 0
h -96 60 0
h -102 -96 61 0
h -96 -99 61 0
h -102 -96 -99 62 0
h -30 106 0
h -29 106 0
h -29 -30 107 0
h -106 100 108 0
h -107 101 108 0
h -104 100 108 0
h -105 101 108 0
h -104 -106 101 108 0
h -104 -107 108 0
h -105 -106 108 0
h -105 -107 100 0
h -108 99 0
h -103 99 0
h -108 -103 0
h -27 109 0
h -26 109 0
h -26 -27 110 0
h -28 104 111 0
h -109 104 111 0
h -110 105 111 0
h -109 -28 105 111 0
h -110 -28 111 0
h -111 103 0
h -25 115 0
h -24 115 0
h -24 -25 116 0
h -115 97 117 0
h -116 98 117 0
h -113 97 117 0
h -114 98 117 0
h -113 -115 98 117 0
h -113 -116 117 0
h -114 -115 117 0
h -114 -116 97 0
h -117 96 0
h -112 96 0
h -117 -112 0
h -22 118 0
h -21 118 0
h -21 -22 119 0
h -23 113 120 0
h -118 113 120 0
h -119 114 120 0
h -118 -23 114 120 0
h -119 -23 120 0
h -120 112 0
h -129 51 131 0
h -130 52 131 0
h -124 51 131 0
h -125 52 131 0
h -124 -129 52 131 0
h -124 -130 131 0
h -125 -129 131 0
h -125 -130 51 0
h -131 47 0
h -126 47 0
h -131 -126 48 0
h -127 48 0
h -131 -127 49 0
h -128 49 0
h -131 -128 50 0
h -121 47 0
h -131 -121 48 0
h -122 48 0
h -131 -122 49 0
h -123 49 0
h -131 -123 50 0
h -121 -126 48 0
h -131 -121 -126 49 0
h -121 -127 49 0
h -131 -121 -127 50 0
h -121 -128 50 0
h -131 -121 -128 0
h -122 -126 49 0
h -131 -122 -126 50 0
h -122 -127 50 0
h -131 -122 -127 0
h -122 -128 0
h -131 -122 -128 0
h -123 -126 50 0
h -131 -123 -126 0
h -123 -127 0
h -131 -123 -127 0
h -123 -128 0
h -131 -123 -128 0
h -136 129 138 0
h -137 130 138 0
h -133 129 138 0
h -134 130 138 0
h -133 -136 130 138 0
h -133 -137 138 0
h -134 -136 138 0
h -134 -137 129 0
h -138 126 0
h -135 126 0
h -138 -135 127 0
h -132 126 0
h -138 -132 127 0
h -132 -135 127 0
h -138 -132 -135 128 0
h -20 142 0
h -19 142 0
h -19 -20 143 0
h -142 136 144 0
h -143 137 144 0
h -140 136 144 0
h -141 137 144 0
h -140 -142 137 144 0
h -140 -143 144 0
h -141 -142 144 0
h -141 -143 136 0
h -144 135 0
h -139 135 0
h -144 -139 0
h -17 145 0
h -16 145 0
h -16 -17 146 0
h -18 140 147 0
h -145 140 147 0
h -146 141 147 0
h -145 -18 141 147 0
h -146 -18 147 0
h -147 139 0
h -15 151 0
h -14 151 0
h -14 -15 152 0
h -151 133 153 0
h -152 134 153 0
h -149 133 153 0
h -150 134 153 0
h -149 -151 134 153 0
h -149 -152 153 0
h -150 -151 153 0
h -150 -152 133 0
h -153 132 0
h -148 132 0
h -153 -148 0
h -12 154 0
h -11 154 0
h -11 -12 155 0
h -13 149 156 0
h -154 149 156 0
h -155 150 156 0
h -154 -13 150 156 0
h -155 -13 156 0
h -156 148 0
h -161 124 163 0
h -162 125 163 0
h -158 124 163 0
h -159 125 163 0
h -158 -161 125 163 0
h -158 -162 163 0
h -159 -161 163 0
h -159 -162 124 0
h -163 121 0
h -160 121 0
h -163 -160 122 0
h -157 121 0
h -163 -157 122 0
h -157 -160 122 0
h -163 -157 -160 123 0
h -10 167 0
h -9 167 0
h -9 -10 168 0
h -167 161 169 0
h -168 162 169 0
h -165 161 169 0
h -166 162 169 0
h -165 -167 162 169 0
h -165 -168 169 0
h -166 -167 169 0
h -166 -168 161 0
h -169 160 0
h -164 160 0
h -169 -164 0
h -7 170 0
h -6 170 0
h -6 -7 171 0
h -8 165 172 0
h -170 165 172 0
h -171 166 172 0
h -170 -8 166 172 0
h -171 -8 172 0
h -172 164 0
h -5 176 0
h -4 176 0
h -4 -5 177 0
h -176 158 178 0
h -177 159 178 0
h -174 158 178 0
h -175 159 178 0
h -174 -176 159 178 0
h -174 -177 178 0
h -175 -176 178 0
h -175 -177 158 0
h -178 157 0
h -173 157 0
h -178 -173 0
h -2 179 0
h -1 179 0
h -1 -2 180 0
h -3 174 181 0
h -179 174 181 0
h -180 175 181 0
h -179 -3 175 181 0
h -180 -3 181 0
h -181 173 0
h -44 -45 0
h -44 -46 0
